p cnf 29 74
a 22 15 0
e 1 2 3 4 5 6 7 8 9 10 11 12 13 14 16 17 18 19 20 21 23 24 25 26 27 28 29 0
3 -1 0
3 2 0
1 -2 -3 0
5 3 0
5 -4 0
-3 4 -5 0
-6 7 -8 0
6 -7 -8 0
-6 -7 8 0
6 7 8 0
9 5 0
9 -8 0
-5 8 -9 0
-10 -11 -12 0
10 11 -12 0
-10 11 12 0
10 -11 12 0
13 -9 0
13 -12 0
9 12 -13 0
1 4 -14 0
-1 -4 -14 0
1 -4 14 0
-1 4 14 0
15 13 0
15 14 0
-13 -14 -15 0
-10 -16 -17 0
10 16 -17 0
-10 16 17 0
10 -16 17 0
-17 7 -18 0
17 -7 -18 0
-17 -7 18 0
17 7 18 0
-20 -19 0
-20 -11 0
19 11 20 0
22 4 0
22 21 0
-4 -21 -22 0
22 -17 -23 0
-22 17 -23 0
22 17 23 0
-22 -17 23 0
17 6 -24 0
-17 -6 -24 0
17 -6 24 0
-17 6 24 0
24 11 -25 0
-24 -11 -25 0
24 -11 25 0
-24 11 25 0
26 23 0
26 -25 0
-23 25 -26 0
-27 -20 0
-27 26 0
20 -26 27 0
28 -18 0
28 27 0
18 -27 -28 0
15 28 -29 0
-15 -28 -29 0
15 -28 29 0
-15 28 29 0
18 -29 -2 -10 -19 0
24 21 -17 0
-6 17 -4 -27 24 0
-3 19 24 -10 20 -5 0
-4 -9 27 8 0
11 14 3 0
12 -8 27 3 -25 0
29 0
